F=506;
S=13;
M=5;
A=[1,3,10,70,500];
B=[-0,0.66,5.35,59.35,489.35];
Si=[{3,0},
    {1},
    {9},
    {9},
    {3,2},
    {3},
    {9,4},
    {9,5},
    {1,6},
    {1},
    {3,0,7},
    {3,0,8},
    {1},
    {9,5},
    {9},
    {3,10},
    {3,0,11},
    {3},
    {3,10,12},
    {1},
    {3,0,7},
    {3,0},
    {0,3},
    {0,3,1},
    {0},
    {0,9},
    {0,3,2},
    {0,3},
    {0,9,4},
    {0,9,5},
    {0,7,6},
    {0,7,6},
    {0,7},
    {0,8},
    {0,8},
    {0,9,5},
    {0,9},
    {0,3,10},
    {0,11},
    {0,3},
    {0,3,10,12},
    {0,3},
    {0,7},
    {0},
    {1},
    {1,3,0},
    {1,9},
    {1,9},
    {1,3,2},
    {1,3},
    {1,9,4},
    {1,9,5},
    {1,6},
    {1},
    {1,6,7},
    {1,8},
    {1},
    {1,9,5},
    {1,9},
    {1,6,10},
    {1,11},
    {1,3},
    {1,6,10,12},
    {1},
    {1,6,7},
    {1,6,10},
    {9},
    {0},
    {9,1},
    {9},
    {0,3,2},
    {0,3},
    {9,4},
    {9,5},
    {9,6},
    {9,6},
    {0,7},
    {0,8},
    {0,8},
    {9,5},
    {9},
    {0,3,10},
    {0,11},
    {0,3},
    {9,5,12},
    {0,3},
    {0,7},
    {0},
    {9},
    {9,0},
    {9,1},
    {9},
    {9,3,2},
    {9,3},
    {4},
    {4,5},
    {9,6},
    {9,6},
    {9,6,7},
    {9,0,8},
    {9,1},
    {4,5},
    {9},
    {9,6,10},
    {9,0,11},
    {9,3},
    {4,5,12},
    {9,1},
    {9,6,7},
    {9,0},
    {2,3},
    {2,3,0},
    {2,3,1},
    {2,3,0},
    {2,3,9},
    {2,3},
    {2,3,9,4},
    {2,3,9,5},
    {2,3,10,6},
    {2,3,1},
    {2,3,0,7},
    {2,8},
    {2,8},
    {2,3,10,12},
    {2,3,9},
    {2,3,10},
    {2,3,0,11},
    {2},
    {2,3,10,12},
    {2,3},
    {2,3,0,7},
    {2,3,0},
    {3},
    {3,0},
    {3,1},
    {3,0},
    {3,9},
    {3,2},
    {3,9,4},
    {3,9,5},
    {3,10,6},
    {3,1},
    {3,0,7},
    {3,0,8},
    {3,1},
    {3,10,12},
    {3,9},
    {3,10},
    {3,0,11},
    {3},
    {3,10,12},
    {3},
    {3,0,7},
    {3,0},
    {4,9},
    {4,9,0},
    {4,9,1},
    {4,9},
    {4},
    {4,9,3,2},
    {4,9,3},
    {4,5},
    {4,9,6},
    {4,9,6},
    {4,9,6,7},
    {4,9,0,8},
    {4,9,1},
    {4,5},
    {4,9},
    {4,9,6,10},
    {4,9,0,11},
    {4,9,3},
    {4,5,12},
    {4,9,1},
    {4,5,12},
    {4,9,0},
    {5,9},
    {5,9,0},
    {5,9,1},
    {5,9},
    {5,4},
    {5,9,3,2},
    {5,9,3},
    {5,4},
    {5,9,6},
    {5,9,6},
    {5,9,6,7},
    {5,9,0,8},
    {5,9,1},
    {5},
    {5,9},
    {5,9,6,10},
    {5,9,0,11},
    {5,9,3},
    {5,12},
    {5,9,1},
    {5,12},
    {5,9,0},
    {6,1},
    {6,7,0},
    {6,1},
    {6,9},
    {6,9},
    {6,10,3,2},
    {6,10,3},
    {6,9,4},
    {6,9,5},
    {6},
    {6,7},
    {6,10,8},
    {6,1},
    {6,9,5},
    {6,9},
    {6,10},
    {6,7,0,11},
    {6,10,3},
    {6,10,12},
    {6,1},
    {6,7},
    {6,10},
    {1},
    {6,7,0},
    {1},
    {6,9},
    {6,9},
    {1,3,2},
    {1,3},
    {6,9,4},
    {6,9,5},
    {6},
    {6,7},
    {1,8},
    {1},
    {6,9,5},
    {6,9},
    {6,10},
    {1,11},
    {1,3},
    {6,10,12},
    {1},
    {6,7},
    {6,10},
    {7,0,3},
    {7,0},
    {7,6,1},
    {7,0},
    {7,6,9},
    {7,0,3,2},
    {7,0,3},
    {7,6,9,4},
    {7,6,9,5},
    {7,6},
    {7,6},
    {7,0,8},
    {7,6,1},
    {7,12},
    {7,6,9},
    {7,6,10},
    {7,0,11},
    {7,0,3},
    {7,12},
    {7,0,3},
    {7},
    {7,0},
    {8,0,3},
    {8,0},
    {8,1},
    {8,0},
    {8,0,9},
    {8,2},
    {8,0,3},
    {8,0,9,4},
    {8,0,9,5},
    {8,10,6},
    {8,1},
    {8,0,7},
    {8},
    {8,10,12},
    {8,0,9},
    {8,10},
    {8,0,11},
    {8},
    {8,10,12},
    {8,0,3},
    {8,0,7},
    {8,0},
    {1},
    {8,0},
    {1},
    {8,0},
    {1,9},
    {8,2},
    {1,3},
    {1,9,4},
    {1,9,5},
    {1,6},
    {1},
    {1,6,7},
    {8},
    {8,10,12},
    {1,9},
    {8,10},
    {8,0,11},
    {8},
    {8,10,12},
    {1},
    {1,6,7},
    {8,0},
    {5,9},
    {5,9,0},
    {5,9,1},
    {5,9},
    {5,4},
    {12,10,3,2},
    {12,10,3},
    {5,4},
    {5},
    {5,9,6},
    {5,9,6},
    {12,7},
    {12,10,8},
    {12,10,8},
    {5,9},
    {12,10},
    {5,9,0,11},
    {12,10,3},
    {12},
    {12,10,3},
    {12},
    {12,10},
    {9},
    {9,0},
    {9,1},
    {9},
    {9},
    {9,3,2},
    {9,3},
    {9,4},
    {9,5},
    {9,6},
    {9,6},
    {9,6,7},
    {9,0,8},
    {9,1},
    {9,5},
    {9,6,10},
    {9,0,11},
    {9,3},
    {9,5,12},
    {9,1},
    {9,6,7},
    {9,0},
    {10,3},
    {10,3,0},
    {10,6,1},
    {10,3,0},
    {10,6,9},
    {10,3,2},
    {10,3},
    {10,6,9,4},
    {10,6,9,5},
    {10,6},
    {10,6},
    {10,6,7},
    {10,8},
    {10,8},
    {10,12},
    {10,6,9},
    {10,3,0,11},
    {10,3},
    {10,12},
    {10,3},
    {10,12},
    {10},
    {11,0,3},
    {11,0},
    {11,1},
    {11,0},
    {11,0,9},
    {11,0,3,2},
    {11,0,3},
    {11,0,9,4},
    {11,0,9,5},
    {11,0,7,6},
    {11,1},
    {11,0,7},
    {11,0,8},
    {11,0,8},
    {11,0,9,5},
    {11,0,9},
    {11,0,3,10},
    {11,0,3},
    {11,0,3,10,12},
    {11},
    {11,0,7},
    {11,0},
    {3},
    {3,0},
    {3,1},
    {3,0},
    {3,9},
    {2},
    {3},
    {3,9,4},
    {3,9,5},
    {3,10,6},
    {3,1},
    {3,0,7},
    {8},
    {8},
    {3,10,12},
    {3,9},
    {3,10},
    {3,0,11},
    {3,10,12},
    {3},
    {3,0,7},
    {3,0},
    {12,10,3},
    {12,10,3,0},
    {12,10,6,1},
    {12,5,9},
    {12,5,4},
    {12,10,3,2},
    {12,10,3},
    {12,5,4},
    {12,5},
    {12,10,6},
    {12,10,6},
    {12,7},
    {12,10,8},
    {12,10,8},
    {12},
    {12,5,9},
    {12,10},
    {12,10,3,0,11},
    {12,10,3},
    {12,10,3},
    {12},
    {12,10},
    {1},
    {3,0},
    {1},
    {3,0},
    {1,9},
    {3,2},
    {3},
    {1,9,4},
    {1,9,5},
    {1,6},
    {1},
    {3,0,7},
    {3,0,8},
    {1},
    {3,10,12},
    {1,9},
    {3,10},
    {11},
    {3},
    {3,10,12},
    {3,0,7},
    {3,0},
    {7,0,3},
    {7,0},
    {7,6,1},
    {7,0},
    {7,6,9},
    {7,0,3,2},
    {7,0,3},
    {12,5,4},
    {12,5},
    {7,6},
    {7,6},
    {7},
    {7,0,8},
    {7,6,1},
    {12},
    {7,6,9},
    {12,10},
    {7,0,11},
    {7,0,3},
    {12},
    {7,0,3},
    {7,0},
    {0,3},
    {0},
    {10,6,1},
    {0},
    {0,9},
    {0,3,2},
    {0,3},
    {0,9,4},
    {0,9,5},
    {10,6},
    {10,6},
    {0,7},
    {0,8},
    {0,8},
    {10,12},
    {0,9},
    {10},
    {0,11},
    {0,3},
    {10,12},
    {0,3},
    {0,7}];
weight=[285,219,271,267,209,208,215,298,232,223,221,286,266,217,243,284,209,227,203,217,297,212,241,241,253,266,278,218,277,289,238,274,263,297,211,214,291,223,293,300,232,249,206,251,226,250,274,239,202,208,255,281,270,235,250,296,272,243,239,282,218,242,253,228,214,253,299,216,248,259,298,229,205,275,233,300,221,212,263,200,264,232,218,296,222,259,214,250,245,238,213,210,213,251,276,215,237,202,215,290,262,250,256,205,247,270,284,247,231,209,267,285,225,274,251,219,204,209,244,260,261,276,206,225,292,244,242,277,205,281,215,208,233,252,239,271,251,290,205,268,230,272,288,226,229,240,286,278,251,276,258,253,273,262,264,209,298,219,285,228,242,215,215,228,290,240,292,205,262,237,273,250,234,293,202,254,201,239,256,227,212,292,238,297,202,244,285,224,244,253,262,276,236,271,251,213,241,200,284,201,265,215,279,242,236,205,254,275,230,255,288,282,243,277,229,215,279,210,280,273,283,216,285,286,257,201,280,214,215,273,297,253,268,261,216,247,291,205,220,263,254,262,265,265,265,269,267,218,239,267,269,257,236,279,222,267,281,253,265,221,261,219,233,229,240,201,275,200,272,260,237,286,226,291,203,243,229,210,264,226,236,240,206,230,260,288,296,294,275,268,252,241,256,249,281,219,213,287,297,205,268,240,269,241,267,246,239,261,266,287,260,200,246,274,236,288,288,264,222,248,288,258,250,214,213,275,257,250,236,300,250,270,232,280,269,231,218,218,276,214,292,263,234,232,214,221,294,265,203,263,257,225,290,220,273,278,232,271,257,272,247,251,278,230,284,271,256,203,221,200,264,255,233,256,205,218,238,211,205,284,243,236,292,249,276,253,216,246,281,260,281,268,200,217,238,209,296,219,285,299,231,212,211,287,298,204,284,216,286,251,218,294,223,243,201,233,296,227,282,249,294,202,235,274,291,268,216,249,230,300,223,284,249,274,245,221,269,272,219,248,275,287,260,274,259,294,222,229,286,256,248,272,292,214,282,288,276,226,293,208,261,231,240,241,295,245,201,224,284,291,254,206,228,296,206,279,213,213,275,269,239,260,283,264,228,249,230,238,217,218,290,233,280,282,276,296,287,290,253,201,215,291,281,245,231,282];
N=[4939,6381,2479,6091,7332,4739,13861,8719,5090,37966,2292,4927,4678];
